c instance by G2
c solution = 0011000001101010011000101
c Known solution cost is 1032 
p cnf 25 30
w 4 32 65 49 51 1 20 33 16 18 5 19 53 99 47 5 67 52 73 63 96 52 36 21 55
-10 13 -11 0
14 -25 -24 0
12 -2 6 0
-15 -14 -23 0
-5 -3 -25 0
21 -15 -9 0
-4 1 -12 0
15 22 -23 0
-14 2 -19 0
-7 -19 -15 0
2 8 -6 0
21 -25 11 0
-21 -25 -18 0
-17 24 -12 0
7 -10 4 0
-11 -13 -16 0
-10 -25 23 0
1 -15 -20 0
-15 10 -13 0
6 -9 1 0
10 -23 -11 0
-17 8 -10 0
1 -22 2 0
12 5 -17 0
-1 7 14 0
20 18 -3 0
9 7 25 0
1 19 12 0
-25 -8 2 0
3 7 22 0
